NAME : RC208.4767.tour
COMMENT : Cost = 0_4767
COMMENT : Found by LKH [Keld Helsgaun] Sat Apr 22 13:41:40 2017
TYPE : TOUR
DIMENSION : 53
TOUR_SECTION
1
23
20
19
22
24
26
49
50
25
21
31
32
30
28
29
27
34
33
35
51
53
13
15
48
18
17
16
14
10
12
11
52
3
7
8
9
47
6
4
46
5
2
44
45
43
39
38
36
37
41
40
42
-1
EOF
